c ---- [ banner ] ------------------------------------------------------------
c
c KISSAT SAT Solver
c Copyright (c) 2019-2020 Armin Biere JKU Linz
c 
c Version 1.0.3 114bf69fb689e536c0d844c8bd4ae5fa9a1d91de
c gcc (Ubuntu 9.4.0-1ubuntu1~20.04.1) 9.4.0 -g -W -Wall -O3 -DNEMBEDDED -DNDEBUG -DCLASSIFY -DNMETRICS -DNSTATISTICS
c Sun Apr 2 11:55:58 IST 2023 Linux Karthikeya 5.15.0-69-generic x86_64
c
c ---- [ parsing ] -----------------------------------------------------------
c
c opened and reading DIMACS file:
c 
c   ../../../benchmark_instances_2022/a2bdae1f9d9695e8cf80cfbbd5f7d61f-PancakeVsSelectionSort_8_4.cnf
c 
c parsed 'p cnf 4883 17417' header
c closing input after reading 282012 bytes (275 KB)
c finished parsing after 0.00 seconds
c
c ---- [ solving ] -----------------------------------------------------------
c
c  seconds reductions redundant irredundant
c         MB   restarts    trail     variables
c          level  conflicts   glue        remaining
c
c *  0.00  3 0  0  0   0   0 0% 0 16121 4301 88%
c {  0.00  3 0  0  0   0   0 0% 0 16121 4301 88%
c -  0.01  5 66  1  1 303 192 16% 6 16053 4301 88%
c i  0.02  5 53  1  1 432 309 21% 6 16053 4299 88%
c i  0.03  5 46  1 18 646 510 31% 6 16053 4297 88%
c i  0.04  5 44  1 68 752 613 32% 6 16053 4295 88%
c -  0.06  5 40  2 106 906 591 35% 6 16034 4295 88%
c }  0.07  5 39  2 131 1001 674 38% 6 16034 4295 88%
c [  0.07  5 0  2 131 1001 674 0% 0 16034 4295 88%
c O  0.07  5 69  2 131 1002 675 77% 13 16031 4295 88%
c i  0.08  5 71  2 131 1191 847 63% 10 16031 4293 88%
c d  0.11  6 56  2 131 1602 1192 58% 12 15135 3847 79%
c d  0.11  6 56  2 131 1602 1192 58% 12 15110 3836 79%
c 3  0.11  6 56  2 131 1602 4455 58% 12 15110 3836 79%
c t  0.11  6 56  2 131 1602 4453 58% 12 14866 3830 78%
c f  0.12  6 56  2 131 1602 11709 58% 12 14866 3760 77%
c f  0.13  6 56  2 131 1602 12592 58% 12 14828 3757 77%
c u  0.15  6 56  2 131 1602 12448 58% 12 14828 3757 77%
c v  0.16  6 56  2 131 1602 12172 58% 12 14828 3757 77%
c w  0.17  6 56  2 131 1602 12172 58% 12 14825 3757 77%
c
c  seconds  reductions    redundant   irredundant
c         MB    restarts         trail      variables
c          level    conflicts        glue        remaining
c
c d  0.17  6 56  2 131 1602 11989 58% 12 14492 3545 73%
c d  0.18  6 56  2 131 1602 11983 58% 12 14480 3539 72%
c i  0.18  6 56  2 131 1602 11983 58% 12 14480 3539 72%
c ]  0.19  6 50  2 131 1793 12160 55% 14 14480 3539 72%
c {  0.19  6 39  2 131 1793 12160 38% 6 14480 3539 72%
c -  0.20  6 39  3 136 1806 3335 38% 6 14264 3539 72%
c I  0.31  6 34  3 378 3003 4442 48% 7 14264 3539 72%
c -  0.31  6 34  4 379 3006 2526 48% 7 14264 3539 72%
c }  0.36  7 34  4 481 3793 3237 48% 8 14264 3539 72%
c [  0.36  7 50  4 481 3793 3237 55% 14 14264 3539 72%
c -  0.41  7 37  5 481 4506 2201 68% 12 14264 3539 72%
c d  0.43  7 36  5 481 4802 2478 73% 12 14242 3528 72%
c 3  0.44  7 36  5 481 4802 5819 73% 12 14242 3528 72%
c t  0.44  7 36  5 481 4802 5581 73% 12 14121 3528 72%
c f  0.45  7 36  5 481 4802 10970 73% 12 14121 3528 72%
c u  0.49  8 36  5 481 4802 10619 73% 12 14121 3528 72%
c v  0.50  8 36  5 481 4802 10294 73% 12 14121 3528 72%
c w  0.51  8 36  5 481 4802 10295 73% 12 14118 3528 72%
c d  0.52  8 36  5 481 4802 10214 73% 12 14078 3476 71%
c B  0.63  8 44  5 483 6004 11363 77% 14 14078 3476 71%
c
c  seconds  reductions   redundant   irredundant
c         MB    restarts        trail      variables
c          level    conflicts       glue        remaining
c
c -  0.65  8 45  6 483 6307 5018 79% 15 14078 3476 71%
c ]  0.69  7 45  6 483 6985 5658 81% 16 14078 3476 71%
c {  0.69  7 34  6 483 6985 5658 48% 8 14078 3476 71%
c 2  0.78  9 33  6 598 8002 6644 55% 8 14057 3476 71%
c s  0.79  9 33  6 598 8002 6644 55% 8 14038 3476 71%
c e  0.81  9 33  6 598 8002 6644 55% 8 9515 1302 27%
c s  0.81  9 33  6 598 8002 6644 55% 8 9512 1302 27%
c e  0.81  9 33  6 598 8002 6644 55% 8 9484 1295 27%
c -  0.83 10 33  7 619 8408 946 56% 8 9484 1295 27%
c d  0.89 10 33  7 710 9603 2075 58% 8 9481 1294 26%
c 3  0.89 10 33  7 710 9603 3555 58% 8 9481 1294 26%
c t  0.89 10 33  7 710 9603 3505 58% 8 9427 1294 26%
c f  0.89 10 33  7 710 9603 4484 58% 8 9427 1294 26%
c u  0.92 10 33  7 710 9603 4244 58% 8 9427 1294 26%
c v  0.93 10 33  7 710 9603 4019 58% 8 9427 1294 26%
c w  0.94 10 33  7 710 9603 4019 58% 8 9423 1294 26%
c d  0.95 10 33  7 710 9603 4019 58% 8 9420 1293 26%
c W  1.01 10 33  7 759 10005 4405 58% 8 9420 1293 26%
c -  1.07 10 33  8 914 10808 2335 58% 8 9420 1293 26%
c }  1.14 10 33  8 1028 11988 3449 56% 8 9420 1293 26%
c
c  seconds  reductions     redundant  irredundant
c         MB     restarts         trail     variables
c          level      conflicts       glue       remaining
c
c [  1.14 10 45  8 1028 11988 3449 81% 16 9420 1293 26%
c 3  1.20 10 50  8 1029 13204 5813 76% 18 9420 1293 26%
c t  1.20 10 50  8 1029 13204 5773 76% 18 9414 1293 26%
c f  1.20 10 50  8 1029 13204 6669 76% 18 9414 1293 26%
c u  1.25 10 50  8 1029 13204 6412 76% 18 9414 1293 26%
c v  1.26 10 50  8 1029 13204 6269 76% 18 9414 1293 26%
c w  1.27 10 50  8 1029 13204 6269 76% 18 9414 1293 26%
c -  1.29  9 50  9 1029 13510 2743 76% 18 9414 1293 26%
c O  1.35 10 49  9 1030 15006 4167 75% 19 9414 1293 26%
c -  1.44 10 46 10 1031 16511 2871 72% 20 9414 1293 26%
c s  1.47 10 46 10 1031 17003 3320 72% 20 9388 1293 26%
c e  1.47 10 46 10 1031 17003 3320 72% 20 9357 1280 26%
c s  1.47 10 46 10 1031 17003 3320 72% 20 9354 1280 26%
c 3  1.51 10 46 10 1032 17705 5338 71% 20 9354 1280 26%
c t  1.51 10 46 10 1032 17705 5326 71% 20 9347 1280 26%
c f  1.52 10 46 10 1032 17705 6268 71% 20 9347 1280 26%
c u  1.56 10 46 10 1032 17705 5992 71% 20 9347 1280 26%
c v  1.57 10 46 10 1032 17705 5791 71% 20 9347 1280 26%
c w  1.58 10 46 10 1032 17705 5791 71% 20 9335 1280 26%
c d  1.58 10 46 10 1032 17705 5791 71% 20 9327 1279 26%
c
c  seconds  reductions     redundant  irredundant
c         MB     restarts         trail     variables
c          level      conflicts       glue       remaining
c
c -  1.70 10 47 11 1033 19813 3051 73% 20 9327 1279 26%
c ]  1.71 10 47 11 1033 19992 3218 73% 20 9327 1279 26%
c {  1.71 10 33 11 1033 19992 3218 56% 8 9327 1279 26%
c B  1.77 11 34 11 1150 21007 4185 56% 8 9327 1279 26%
c 3  1.92 13 34 11 1377 23105 7696 57% 9 9327 1279 26%
c t  1.92 13 34 11 1377 23105 7649 57% 9 9322 1279 26%
c f  1.92 13 34 11 1377 23105 8455 57% 9 9322 1279 26%
c u  1.97 12 34 11 1377 23105 8316 57% 9 9322 1279 26%
c v  1.98 12 34 11 1377 23105 8186 57% 9 9322 1279 26%
c w  2.00 12 34 11 1377 23105 8186 57% 9 9162 1279 26%
c -  2.02 13 34 12 1415 23413 4073 57% 9 9162 1279 26%
c -  2.28 17 33 13 1776 27314 5660 58% 9 9162 1279 26%
c W  2.36 17 33 13 1838 28009 6317 59% 9 9162 1279 26%
c d  2.47 17 33 13 2042 29405 7627 58% 9 9160 1278 26%
c 3  2.48 17 33 13 2042 29405 9338 58% 9 9160 1278 26%
c t  2.48 17 33 13 2042 29405 9329 58% 9 9142 1278 26%
c f  2.48 17 33 13 2042 29405 10291 58% 9 9142 1278 26%
c u  2.52 17 33 13 2042 29405 10037 58% 9 9142 1278 26%
c v  2.53 17 33 13 2042 29405 9957 58% 9 9142 1278 26%
c w  2.54 17 33 13 2042 29405 9957 58% 9 9138 1278 26%
c
c  seconds  reductions      redundant irredundant
c         MB     restarts          trail    variables
c          level      conflicts       glue       remaining
c
c }  2.59 17 33 13 2117 29992 10500 58% 9 9138 1278 26%
c [  2.59 17 47 13 2117 29992 10500 73% 20 9138 1278 26%
c s  2.63 17 46 13 2117 30504 10991 73% 20 9127 1278 26%
c e  2.63 16 46 13 2117 30504 10991 73% 20 9115 1258 26%
c ^  2.63 16 46 13 2117 30504 10991 73% 20 9115 1258 26%
c -  2.68 17 47 14 2118 31514 6684 74% 20 9115 1258 26%
c I  2.94 17 47 14 2121 36013 11031 75% 22 9115 1258 26%
c -  2.94 17 47 15 2121 36014 6470 75% 22 9115 1258 26%
c d  2.97 17 47 15 2122 36605 7028 75% 22 9111 1257 26%
c 3  2.97 17 47 15 2122 36605 8669 75% 22 9111 1257 26%
c t  2.97 17 47 15 2122 36605 8638 75% 22 9108 1257 26%
c f  2.98 17 47 15 2122 36605 9483 75% 22 9108 1257 26%
c u  3.02 18 47 15 2122 36605 9277 75% 22 9108 1257 26%
c v  3.03 17 47 15 2122 36605 9112 75% 22 9108 1257 26%
c w  3.04 17 47 15 2122 36605 9112 75% 22 9092 1257 26%
c -  3.26 17 46 16 2123 40814 6391 75% 22 9092 1257 26%
c ]  3.42 17 45 16 2125 43565 9012 74% 22 9092 1257 26%
c {  3.42 17 33 16 2125 43565 9012 58% 9 9092 1257 26%
c 3  3.52 17 33 16 2292 44705 11530 58% 9 9092 1257 26%
c t  3.52 17 33 16 2292 44705 11500 58% 9 9085 1257 26%
c
c  seconds  reductions      redundant irredundant
c         MB     restarts          trail    variables
c          level      conflicts       glue       remaining
c
c f  3.53 17 33 16 2292 44705 12300 58% 9 9085 1257 26%
c u  3.58 17 33 16 2292 44705 12154 58% 9 9085 1257 26%
c v  3.59 17 33 16 2292 44705 11978 58% 9 9085 1257 26%
c w  3.60 17 33 16 2292 44705 11978 58% 9 9071 1257 26%
c B  3.64 17 33 16 2313 45014 12271 58% 9 9071 1257 26%
c -  3.71 18 33 17 2421 45915 7205 58% 9 9071 1257 26%
c i  3.80 17 30 17 2421 48219 9016 54% 8 9071 1256 26%
c s  3.83 17 31 17 2473 48507 9289 54% 9 9055 1256 26%
c e  3.84 17 31 17 2473 48507 9289 54% 9 9161 1062 22%
c s  3.84 17 31 17 2473 48507 9289 54% 9 9160 1062 22%
c -  4.13 17 31 18 2966 51315 7841 54% 9 9160 1062 22%
c 3  4.42 17 32 18 3477 53706 11785 55% 9 9160 1062 22%
c t  4.42 17 32 18 3477 53706 11782 55% 9 9151 1062 22%
c f  4.42 17 32 18 3477 53706 12682 55% 9 9151 1062 22%
c u  4.46 17 32 18 3477 53706 12455 55% 9 9151 1062 22%
c v  4.48 17 32 18 3477 53706 12344 55% 9 9151 1062 22%
c w  4.49 17 32 18 3477 53706 12345 55% 9 9130 1062 22%
c W  4.62 17 32 18 3596 55015 13562 54% 9 9130 1062 22%
c -  4.85 17 32 19 3925 57015 10433 55% 9 9130 1062 22%
c }  5.22 17 33 19 4474 60567 13823 55% 9 9130 1062 22%
c
c  seconds  reductions      redundant  irredundant
c         MB     restarts          trail     variables
c          level      conflicts        glue       remaining
c
c [  5.22 17 45 19 4474 60567 13823 74% 22 9130 1062 22%
c -  5.36 18 43 20 4476 63015 11290 72% 21 9130 1062 22%
c 3  5.40 17 43 20 4476 63606 13382 73% 21 9130 1062 22%
c t  5.40 17 43 20 4476 63606 13346 73% 21 9121 1062 22%
c f  5.40 17 43 20 4476 63606 14083 73% 21 9121 1062 22%
c u  5.45 18 43 20 4476 63606 13813 73% 21 9121 1062 22%
c v  5.47 18 43 20 4476 63606 13704 73% 21 9121 1062 22%
c w  5.48 18 43 20 4476 63606 13713 73% 21 9089 1062 22%
c #  5.62 18 42 20 4478 66018 16032 73% 21 9089 1062 22%
c -  5.86 18 42 21 4480 69315 10929 73% 21 9089 1062 22%
c s  5.96 18 42 21 4480 71007 12578 73% 21 9084 1062 22%
c e  5.96 18 42 21 4480 71007 12578 73% 21 9047 1047 21%
c 3  6.17 18 41 21 4482 74406 16976 73% 21 9047 1047 21%
c t  6.17 18 41 21 4482 74406 16969 73% 21 9032 1047 21%
c f  6.17 18 41 21 4482 74406 17717 73% 21 9032 1047 21%
c u  6.21 18 41 21 4482 74406 17580 73% 21 9032 1047 21%
c v  6.22 18 41 21 4482 74406 17413 73% 21 9032 1047 21%
c w  6.23 18 41 21 4482 74406 17413 73% 21 9030 1047 21%
c d  6.23 18 41 21 4482 74406 17412 73% 21 9027 1046 21%
c -  6.32 19 41 22 4483 75915 10174 74% 21 9027 1046 21%
c
c  seconds  reductions      redundant  irredundant
c         MB     restarts          trail     variables
c          level      conflicts        glue       remaining
c
c B  6.42 18 41 22 4484 78021 12174 74% 21 9027 1046 21%
c -  6.65 18 39 23 4487 82816 10134 75% 20 9027 1046 21%
c 3  6.81 18 38 23 4488 86106 15181 75% 20 9027 1046 21%
c t  6.81 18 38 23 4488 86106 15172 75% 20 9026 1046 21%
c f  6.82 18 38 23 4488 86106 15924 75% 20 9026 1046 21%
c u  6.85 18 38 23 4488 86106 15792 75% 20 9026 1046 21%
c v  6.86 18 38 23 4488 86106 15705 75% 20 9026 1046 21%
c w  6.87 19 38 23 4488 86106 15705 75% 20 9025 1046 21%
c -  7.08 19 37 24 4488 90018 10254 75% 20 9025 1046 21%
c B  7.15 18 37 24 4488 91024 11205 76% 20 9025 1046 21%
c ]  7.43 18 36 24 4491 95572 15521 76% 20 9025 1046 21%
c {  7.43 18 33 24 4491 95572 15521 55% 9 9025 1046 21%
c -  7.71 19 33 25 4875 97518 11009 55% 9 9025 1046 21%
c s  7.77 18 33 25 4977 98007 11449 55% 10 9024 1046 21%
c e  7.77 18 33 25 4977 98007 11449 55% 10 9021 1044 21%
c ^  7.77 18 33 25 4977 98007 11449 55% 10 9021 1044 21%
c 3  7.84 18 33 25 5055 98706 13974 56% 10 9021 1044 21%
c t  7.84 18 33 25 5055 98706 13972 56% 10 9020 1044 21%
c f  7.85 19 33 25 5055 98706 14747 56% 10 9020 1044 21%
c u  7.89 19 33 25 5055 98706 14532 56% 10 9020 1044 21%
c
c  seconds  reductions      redundant  irredundant
c         MB     restarts          trail     variables
c          level      conflicts        glue       remaining
c
c v  7.90 19 33 25 5055 98706 14442 56% 10 9020 1044 21%
c w  7.91 19 33 25 5055 98706 14442 56% 10 9017 1044 21%
c F  8.58 26 32 25 5766 105025 20488 56% 10 9017 1044 21%
c -  8.62 26 32 26 5815 105318 14049 56% 10 9017 1044 21%
c 3  9.47 30 32 26 6682 112207 21977 55% 10 9017 1044 21%
c t  9.47 30 32 26 6682 112207 21950 55% 10 9016 1044 21%
c f  9.48 30 32 26 6682 112207 22639 55% 10 9016 1044 21%
c u  9.52 30 32 26 6682 112207 22500 55% 10 9016 1044 21%
c v  9.54 30 32 26 6682 112207 22422 55% 10 9016 1044 21%
c w  9.55 30 32 26 6682 112207 22422 55% 10 9016 1044 21%
c -  9.77 30 32 27 6952 113418 16120 56% 10 9016 1044 21%
c B 10.49 30 32 27 7843 120026 22371 56% 10 9016 1044 21%
c } 10.74 31 32 27 8123 121572 23861 56% 10 9016 1044 21%
c [ 10.74 31 36 27 8123 121572 23861 76% 20 9016 1044 21%
c - 10.76 31 36 28 8123 121818 17492 76% 20 9016 1044 21%
c 3 11.10 30 37 28 8126 126609 23947 76% 20 9016 1044 21%
c t 11.10 30 37 28 8126 126609 23938 76% 20 9016 1044 21%
c f 11.11 30 37 28 8126 126609 24639 76% 20 9016 1044 21%
c u 11.17 30 37 28 8126 126609 24461 76% 20 9016 1044 21%
c v 11.18 31 37 28 8126 126609 24248 76% 20 9016 1044 21%
c
c  seconds  reductions       redundant  irredundant
c         MB     restarts           trail     variables
c          level      conflicts         glue       remaining
c
c w 11.20 30 37 28 8126 126609 24248 76% 20 9015 1044 21%
c s 11.47 31 37 28 8128 129511 27093 76% 20 9013 1044 21%
c e 11.47 30 37 28 8128 129511 27093 76% 20 9080 991 20%
c - 11.57 29 37 29 8129 130518 14887 76% 20 9080 991 20%
c B 11.99 30 36 29 8132 136027 20216 75% 20 9080 991 20%
c - 12.21 29 36 30 8134 139520 14351 76% 20 9080 991 20%
c 3 12.35 29 36 30 8135 141910 18433 75% 20 9080 991 20%
c t 12.35 29 36 30 8135 141910 18425 75% 20 9079 991 20%
c f 12.36 29 36 30 8135 141910 19075 75% 20 9079 991 20%
c u 12.42 30 36 30 8135 141910 18753 75% 20 9079 991 20%
c v 12.43 30 36 30 8135 141910 18645 75% 20 9079 991 20%
c w 12.45 30 36 30 8135 141910 18645 75% 20 9059 991 20%
c - 12.97 30 37 31 8137 148821 14696 76% 20 9059 991 20%
c O 13.20 29 37 31 8137 153028 18773 76% 20 9059 991 20%
c 3 13.60 30 37 31 8140 158110 25298 76% 20 9059 991 20%
c t 13.60 30 37 31 8140 158110 25285 76% 20 9052 991 20%
c f 13.61 31 37 31 8140 158110 25890 76% 20 9052 991 20%
c u 13.67 31 37 31 8140 158110 25735 76% 20 9052 991 20%
c v 13.69 31 37 31 8140 158110 25604 76% 20 9052 991 20%
c w 13.70 31 37 31 8140 158110 25604 76% 20 9048 991 20%
c
c  seconds  reductions       redundant  irredundant
c         MB     restarts           trail     variables
c          level      conflicts         glue      remaining
c
c - 13.73 30 37 32 8140 158422 14578 76% 20 9048 991 20%
c e 14.12 29 36 32 8144 165512 21373 76% 20 9050 988 20%
c - 14.29 29 36 33 8146 168323 14645 76% 20 9050 988 20%
c B 14.43 29 36 33 8148 171029 17255 76% 20 9050 988 20%
c 3 14.67 30 36 33 8151 175210 23147 76% 20 9050 988 20%
c t 14.67 30 36 33 8151 175210 23129 76% 20 9050 988 20%
c f 14.68 30 36 33 8151 175210 23747 76% 20 9050 988 20%
c u 14.74 31 36 33 8151 175210 23620 76% 20 9050 988 20%
c v 14.76 31 36 33 8151 175210 23428 76% 20 9050 988 20%
c w 14.78 31 36 33 8151 175210 23428 76% 20 9049 988 20%
c - 15.04 30 36 34 8151 178523 15072 77% 20 9049 988 20%
c ] 15.23 30 36 34 8152 181785 18194 77% 20 9049 988 20%
c { 15.23 30 32 34 8152 181785 18194 56% 10 9049 988 20%
c - 16.29 31 32 35 9357 189023 17005 59% 10 9049 988 20%
c W 16.47 31 32 35 9538 190033 17994 59% 10 9049 988 20%
c 3 16.89 32 32 35 10018 193211 23049 59% 10 9049 988 20%
c t 16.89 32 32 35 10018 193211 23043 59% 10 9049 988 20%
c f 16.90 32 32 35 10018 193211 23732 59% 10 9049 988 20%
c u 16.99 33 32 35 10018 193211 23466 59% 10 9049 988 20%
c v 17.01 33 32 35 10018 193211 23178 59% 10 9049 988 20%
c
c  seconds  reductions        redundant  irredundant
c         MB     restarts            trail     variables
c          level       conflicts         glue      remaining
c
c w 17.03 32 32 35 10018 193211 23178 59% 10 9042 988 20%
c - 17.81 41 32 36 10659 199823 20064 59% 11 9042 988 20%
c s 18.54 48 33 36 11366 206013 25986 59% 11 9039 988 20%
c e 18.55 46 33 36 11366 206013 25986 59% 11 9039 986 20%
c I 18.89 50 32 36 11408 210036 29320 58% 11 9039 986 20%
c - 19.05 51 32 37 11557 210923 22161 58% 11 9039 986 20%
c 3 19.26 52 32 37 11782 212115 24990 58% 11 9039 986 20%
c t 19.26 52 32 37 11782 212115 24963 58% 11 9038 986 20%
c f 19.27 52 32 37 11782 212115 25580 58% 11 9038 986 20%
c u 19.37 53 32 37 11782 212115 25332 58% 11 9038 986 20%
c v 19.40 53 32 37 11782 212115 25191 58% 11 9038 986 20%
c w 19.42 52 32 37 11782 212115 25193 58% 11 9035 986 20%
c } 20.46 54 32 37 12534 218786 31639 58% 11 9035 986 20%
c [ 20.46 54 36 37 12534 218786 31639 77% 20 9035 986 20%
c - 20.72 55 37 38 12536 222324 23735 77% 21 9035 986 20%
c B 21.38 55 39 38 12540 231037 32179 78% 22 9035 986 20%
c 3 21.47 55 39 38 12541 231915 34455 78% 22 9035 986 20%
c t 21.47 55 39 38 12541 231915 34440 78% 22 9033 986 20%
c f 21.48 55 39 38 12541 231915 35002 78% 22 9033 986 20%
c u 21.58 56 39 38 12541 231915 34730 78% 22 9033 986 20%
c
c  seconds  reductions        redundant  irredundant
c         MB     restarts            trail     variables
c          level       conflicts         glue      remaining
c
c v 21.61 56 39 38 12541 231915 34577 78% 22 9033 986 20%
c w 21.64 56 39 38 12541 231915 34579 78% 22 9025 986 20%
c - 21.82 54 39 39 12543 234026 22294 78% 22 9025 986 20%
c - 22.78 54 40 40 12548 246031 21081 78% 22 9025 986 20%
c ^ 23.17 54 40 40 12548 251019 25915 79% 23 9025 986 20%
c 3 23.34 54 40 40 12549 252615 29346 79% 23 9025 986 20%
c t 23.34 54 40 40 12549 252615 29343 79% 23 9025 986 20%
c f 23.35 54 40 40 12549 252615 29992 79% 23 9025 986 20%
c u 23.47 55 40 40 12549 252615 29587 79% 23 9025 986 20%
c v 23.50 55 40 40 12549 252615 29353 79% 23 9025 986 20%
c w 23.53 54 40 40 12549 252615 29356 79% 23 8992 986 20%
c d 23.54 54 40 40 12549 252615 29356 79% 23 8990 985 20%
c B 23.61 55 40 40 12550 253039 29753 79% 23 8990 985 20%
c - 24.06 54 41 41 12554 258331 21111 79% 23 8990 985 20%
c - 25.08 54 41 42 12561 270931 21676 79% 23 8990 985 20%
c 3 25.30 53 41 42 12562 274215 26839 79% 23 8990 985 20%
c t 25.30 53 41 42 12562 274215 26812 79% 23 8982 985 20%
c f 25.31 53 41 42 12562 274215 27360 79% 23 8982 985 20%
c u 25.42 54 41 42 12562 274215 27006 79% 23 8982 985 20%
c v 25.45 54 41 42 12562 274215 26774 79% 23 8982 985 20%
c
c  seconds  reductions        redundant  irredundant
c         MB     restarts            trail     variables
c          level       conflicts         glue      remaining
c
c w 25.48 53 41 42 12562 274215 26774 79% 23 8979 985 20%
c # 25.63 54 41 42 12562 276043 28526 79% 23 8979 985 20%
c - 26.18 54 41 43 12563 283832 21838 80% 23 8979 985 20%
c 3 27.25 55 41 43 12564 296715 36264 80% 23 8979 985 20%
c t 27.25 55 41 43 12564 296715 36249 80% 23 8979 985 20%
c f 27.26 56 41 43 12564 296715 36775 80% 23 8979 985 20%
c u 27.41 57 41 43 12564 296715 36356 80% 23 8979 985 20%
c v 27.44 57 41 43 12564 296715 36100 80% 23 8979 985 20%
c w 27.49 56 41 43 12564 296715 36100 80% 23 8979 985 20%
c - 27.53 54 41 44 12564 297032 21376 80% 23 8979 985 20%
c ] 27.58 53 41 44 12564 297680 22015 80% 23 8979 985 20%
c { 27.58 53 32 44 12564 297680 22015 58% 11 8979 985 20%
c B 27.93 54 32 44 12914 300044 24327 59% 11 8979 985 20%
c s 28.02 54 32 44 13015 300519 24789 59% 11 8977 985 20%
c e 28.03 52 32 44 13015 300519 24789 59% 11 9011 920 19%
c - 28.94 55 32 45 13696 310532 20505 57% 11 9011 920 19%
c 3 29.98 54 31 45 14395 320115 31454 58% 11 9011 920 19%
c t 29.98 54 31 45 14395 320115 31449 58% 11 9003 920 19%
c f 29.99 54 31 45 14395 320115 32007 58% 11 9003 920 19%
c u 30.14 55 31 45 14395 320115 31727 58% 11 9003 920 19%
c
c  seconds  reductions        redundant  irredundant
c         MB     restarts            trail     variables
c          level       conflicts         glue      remaining
c
c v 30.17 55 31 45 14395 320115 31618 58% 11 9003 920 19%
c w 30.21 54 31 45 14395 320115 31618 58% 11 8948 920 19%
c - 30.94 55 31 46 14934 324332 24703 58% 11 8948 920 19%
c W 31.03 55 31 46 14945 325045 25397 58% 11 8948 920 19%
c i 32.27 55 32 46 16066 332313 32463 59% 11 8948 919 19%
c - 32.86 55 31 47 16401 338433 27220 59% 11 8948 919 19%
c 3 33.74 54 31 47 17090 344415 34496 59% 11 8944 919 19%
c t 33.74 54 31 47 17090 344415 34489 59% 11 8918 919 19%
c f 33.75 55 31 47 17090 344415 35069 59% 11 8918 919 19%
c u 33.93 56 31 47 17090 344415 34680 59% 11 8918 919 19%
c v 33.98 56 31 47 17090 344415 34525 59% 11 8918 919 19%
c w 34.03 55 31 47 17090 344415 34525 59% 11 8914 919 19%
c } 34.74 55 31 47 17685 347682 37713 59% 11 8914 919 19%
c [ 34.74 55 41 47 17685 347682 37713 80% 23 8914 919 19%
c F 34.99 56 40 47 17687 351046 40987 80% 23 8914 919 19%
c - 35.15 56 40 48 17689 352833 28166 80% 23 8914 919 19%
c s 35.25 55 40 48 17690 354519 29785 80% 23 8908 919 19%
c e 35.25 54 40 48 17690 354519 29785 80% 23 8925 914 19%
c ^ 35.25 54 40 48 17690 354519 29785 80% 23 8925 914 19%
c - 36.23 55 39 49 17697 367533 26252 80% 22 8925 914 19%
c
c  seconds  reductions        redundant  irredundant
c         MB     restarts            trail     variables
c          level       conflicts         glue      remaining
c
c 3 36.36 53 39 49 17698 369615 29891 80% 22 8925 914 19%
c t 36.36 53 39 49 17698 369615 29878 80% 22 8924 914 19%
c f 36.37 54 39 49 17698 369615 30402 80% 22 8924 914 19%
c u 36.54 55 39 49 17698 369615 29768 80% 22 8924 914 19%
c v 36.58 55 39 49 17698 369615 29410 80% 22 8924 914 19%
c w 36.62 54 39 49 17698 369615 29410 80% 22 8912 914 19%
c B 37.27 56 39 49 17699 378048 37478 80% 22 8912 914 19%
c - 37.63 55 38 50 17701 382533 24308 80% 22 8912 914 19%
c 3 38.65 55 38 50 17709 395716 38471 80% 22 8912 914 19%
c t 38.65 55 38 50 17709 395716 38460 80% 22 8904 914 19%
c f 38.67 56 38 50 17709 395716 38930 80% 22 8904 914 19%
c u 38.86 57 38 50 17709 395716 38494 80% 22 8904 914 19%
c v 38.92 56 38 50 17709 395716 38172 80% 22 8904 914 19%
c w 38.96 56 38 50 17709 395716 38173 80% 22 8882 914 19%
c - 39.15 55 38 51 17710 397833 23871 80% 22 8882 914 19%
c B 39.72 55 38 51 17714 406053 31709 80% 21 8882 914 19%
c s 40.22 57 37 51 17714 413022 38387 80% 21 8874 914 19%
c e 40.23 55 37 51 17714 413022 38387 80% 21 8887 740 15%
c s 40.24 55 37 51 17714 413022 38387 80% 21 8885 740 15%
c e 40.24 55 37 51 17714 413022 38387 80% 21 8884 739 15%
c
c  seconds  reductions        redundant  irredundant
c         MB     restarts            trail     variables
c          level       conflicts         glue      remaining
c
c - 40.27 52 37 52 17715 413433 17138 80% 21 8884 739 15%
c 3 40.76 54 37 52 17715 422717 27099 80% 21 8884 739 15%
c t 40.76 54 37 52 17715 422717 27094 80% 21 8875 739 15%
c f 40.77 54 37 52 17715 422717 27295 80% 21 8875 739 15%
c u 40.96 55 37 52 17715 422717 26737 80% 21 8875 739 15%
c v 41.02 54 37 52 17715 422717 26208 80% 21 8875 739 15%
c w 41.08 54 37 52 17715 422717 26209 80% 21 8852 739 15%
c - 41.53 56 36 53 17715 429334 18382 79% 21 8852 739 15%
c O 41.86 55 36 53 17720 435054 23887 79% 21 8852 739 15%
c - 42.54 56 36 54 17725 445538 19713 79% 21 8852 739 15%
c 3 42.87 55 36 54 17729 450618 25822 79% 21 8852 739 15%
c t 42.87 55 36 54 17729 450618 25818 79% 21 8848 739 15%
c f 42.87 55 36 54 17729 450618 26050 79% 21 8848 739 15%
c u 43.08 56 36 54 17729 450618 25365 79% 21 8848 739 15%
c v 43.14 56 36 54 17729 450618 25003 79% 21 8848 739 15%
c w 43.20 55 36 54 17729 450618 25003 79% 21 8842 739 15%
c - 43.86 54 35 55 17730 462038 20747 79% 20 8842 739 15%
c B 44.02 53 35 55 17733 465055 23653 79% 20 8842 739 15%
c ] 44.04 53 35 55 17733 465629 24201 79% 20 8842 739 15%
c { 44.04 53 31 55 17733 465629 24201 59% 11 8842 739 15%
c
c  seconds  reductions        redundant  irredundant
c         MB     restarts            trail     variables
c          level       conflicts         glue      remaining
c
c s 45.21 55 31 55 18500 476022 34221 59% 11 8821 739 15%
c e 45.21 54 31 55 18500 476022 34221 59% 11 8825 736 15%
c i 45.62 56 31 55 18818 478164 36078 59% 11 8825 735 15%
c - 45.78 56 31 56 18947 478838 23956 59% 11 8825 735 15%
c 3 45.85 55 31 56 18978 479418 25643 59% 11 8817 735 15%
c t 45.85 55 31 56 18978 479418 25630 59% 11 8811 735 15%
c f 45.86 55 31 56 18978 479418 25813 59% 11 8811 735 15%
c u 46.09 56 31 56 18978 479418 25241 59% 11 8811 735 15%
c v 46.15 56 31 56 18978 479418 25016 59% 11 8811 735 15%
c w 46.20 55 31 56 18978 479418 25016 59% 11 8776 735 15%
c - 48.24 57 31 57 20434 495939 26878 60% 11 8776 735 15%
c W 48.27 55 31 57 20434 496056 26992 60% 11 8776 735 15%
c 3 50.06 58 30 57 21482 509119 40016 60% 11 8776 735 15%
c t 50.06 58 30 57 21482 509119 40006 60% 11 8759 735 15%
c f 50.07 58 30 57 21482 509119 40215 60% 11 8759 735 15%
c u 50.35 60 30 57 21482 509119 39899 60% 11 8759 735 15%
c v 50.41 60 30 57 21482 509119 39539 60% 11 8759 735 15%
c w 50.47 58 30 57 21482 509119 39539 60% 11 8647 735 15%
c - 50.86 62 30 58 21482 513342 28598 59% 11 8647 735 15%
c I 53.17 79 30 58 23148 528059 42776 60% 11 8647 735 15%
c
c  seconds  reductions        redundant  irredundant
c         MB     restarts            trail     variables
c          level       conflicts         glue      remaining
c
c } 53.47 84 30 58 23307 530630 45279 60% 11 8647 735 15%
c [ 53.47 84 35 58 23307 530630 45279 79% 20 8647 735 15%
c - 53.50 83 35 59 23307 531042 30588 79% 20 8647 735 15%
c 3 54.29 83 36 59 23313 539720 40030 79% 21 8647 735 15%
c t 54.29 83 36 59 23313 539720 40023 79% 21 8620 735 15%
c f 54.30 83 36 59 23313 539720 40250 79% 21 8620 735 15%
c u 54.58 85 36 59 23313 539720 39828 79% 21 8620 735 15%
c v 54.65 85 36 59 23313 539720 39608 79% 21 8620 735 15%
c w 54.72 84 36 59 23313 539720 39608 79% 21 8599 735 15%
c s 55.05 85 36 59 23314 543523 43196 79% 21 8586 735 15%
c e 55.05 83 36 59 23314 543523 43196 79% 21 8602 728 15%
c - 55.56 82 37 60 23318 549043 28329 80% 21 8602 728 15%
c B 56.65 84 39 60 23321 561060 39921 80% 22 8602 728 15%
c - 57.27 82 39 61 23324 567343 26867 80% 22 8602 728 15%
c 3 57.54 81 39 61 23327 571220 31732 80% 22 8602 728 15%
c t 57.54 81 39 61 23327 571220 31717 80% 22 8592 728 15%
c f 57.55 82 39 61 23327 571220 31918 80% 22 8592 728 15%
c u 57.85 82 39 61 23327 571220 31233 80% 22 8592 728 15%
c v 57.93 83 39 61 23327 571220 30648 80% 22 8592 728 15%
c w 58.00 82 39 61 23327 571220 30648 80% 22 8572 728 15%
c
c  seconds  reductions        redundant  irredundant
c         MB     restarts            trail     variables
c          level       conflicts         glue      remaining
c
c - 59.13 82 40 62 23335 585943 26165 80% 23 8572 728 15%
c caught signal 15 (SIGTERM)
c
c ---- [ profiling ] ---------------------------------------------------------
c
c          53.25   88.76 %  search
c          27.22   45.38 %  stable
c          26.03   43.39 %  focused
c           6.74   11.23 %  simplify
c           6.34   10.57 %  probe
c           5.64    9.41 %  vivify
c           0.27    0.44 %  failed
c           0.24    0.40 %  walking
c           0.22    0.37 %  ternary
c           0.19    0.31 %  substitute
c           0.18    0.31 %  reduce
c           0.14    0.23 %  eliminate
c           0.02    0.03 %  transitive
c           0.02    0.03 %  autarky
c           0.00    0.01 %  parse
c =============================================
c          59.99  100.00 %  total
c
c ---- [ statistics ] --------------------------------------------------------
c
460451314 11.601493
c conflicts:                           593995             9901.37 per second
c decisions:                          1721766                2.90 per conflict
c propagations:                      81246073          1354300    per second
c reductions:                              62             9581    interval
c rephased:                                33            18000    interval
c restarts:                             23336               25.45 interval
c MAB stats : 87 82 
c
c ---- [ resources ] ---------------------------------------------------------
c
c maximum-resident-set-size:         90284032 bytes         86 MB
c process-time:                            59s              59.99 seconds
c raising signal 15 (SIGTERM)
